c nombre: 4
c densidad: 0.1
p edges 30 40
e 1 2
e 1 3
e 2 26
e 2 30
e 3 5
e 4 14
e 4 22
e 5 6
e 5 12
e 5 21
e 6 9
e 6 15
e 6 18
e 7 12
e 7 29
e 8 17
e 8 27
e 8 28
e 8 29
e 9 15
e 9 19
e 9 20
e 9 24
e 10 11
e 10 16
e 10 23
e 10 29
e 11 21
e 12 17
e 12 25
e 12 29
e 13 18
e 13 19
e 14 21
e 15 20
e 17 29
e 18 23
e 20 22
e 22 26
e 23 26
